c Random 3-SAT formula
c Number of variables: 7
c Number of clauses: 30
p cnf 7 30
4 -2 -5 0
1 -7 -2 0
-1 -6 4 0
4 7 -6 0
-3 4 5 0
6 -1 -3 0
-4 5 -1 0
-6 -1 -4 0
4 -7 5 0
-4 -2 6 0
5 -6 -3 0
4 5 2 0
-1 -4 -5 0
6 7 -1 0
4 -6 7 0
-4 2 3 0
6 -1 -4 0
3 -7 5 0
3 -7 6 0
2 -5 -7 0
3 1 -2 0
7 4 -2 0
6 -3 -7 0
-1 7 4 0
-2 3 5 0
3 4 -6 0
-1 -7 -3 0
-4 -2 -1 0
-7 -2 4 0
3 -4 2 0
